30 
300 
10.5 14.4 0 0
11.2 14.1 0 -63
18 15.9 10 -12
18.3 13.3 10 -11
16.5 9.3 -10 -94
15.4 11 10 -28
14.9 13.2 5 -10
16.3 13.3 5 -19
16.4 17.8 -5 -118
15 17.9 5 -21
16.1 19.6 -10 -139
15.7 20.6 -10 -119
13.2 20.1 10 -19
14.3 15.3 -5 -124
14 5.1 10 -12
11.4 6.7 15 -29
8.3 5 15 -18
7.9 9.8 10 -15
11.4 12 5 -25
11.2 17.6 5 -20
10.1 18.7 5 -10
11.7 20.3 10 -20
10.2 22.1 10 -24
9.7 23.8 -10 -67
10.1 26.4 15 -18
7.4 24 15 -26
8.2 19.9 15 -13
8.7 17.7 10 -12
8.9 13.6 10 -18
5.6 11.1 10 -18
4.9 18.9 -10 -65
7.3 18.8 -10 -120
